p cnf 220 1456
74 126 157 158 0
105 106 112 217 0
96 104 115 125 132 0
68 71 154 219 0
102 111 139 0
144 155 161 163 165 0
123 167 0
95 128 129 147 0
85 89 90 152 0
79 80 0
78 142 0
75 150 162 204 0
118 121 0
67 70 73 82 88 0
66 97 99 135 136 145 0
77 103 140 169 170 0
156 171 172 173 174 0
168 176 177 180 0
124 182 184 201 211 0
186 187 213 0
92 148 153 188 189 190 193 0
191 192 196 198 0
166 179 199 0
185 200 0
205 207 0
109 134 208 0
72 84 87 0
100 137 209 0
130 202 212 0
93 214 0
81 91 194 197 0
143 195 215 216 0
119 127 159 206 0
110 114 218 0
64 69 220 0
62 63 0
59 60 101 138 0
57 58 160 164 0
55 56 122 0
53 146 151 0
50 51 52 141 0
149 203 0
45 47 49 108 0
42 43 44 0
41 65 98 0
40 76 0
38 39 175 0
-36 -104 0
-104 -111 0
-104 -144 0
-36 -111 0
-36 -144 0
-111 -144 0
-124 -171 0
-171 -186 0
-148 -171 0
-124 -186 0
-124 -148 0
-148 -186 0
-37 -202 0
-127 -215 0
-114 -215 0
-114 -127 0
-58 -122 0
-58 -146 0
-122 -146 0
-58 -215 0
-104 -171 0
-104 -127 0
-104 -122 0
-127 -171 0
-122 -171 0
-122 -127 0
-36 -124 0
-36 -114 0
-36 -146 0
-114 -124 0
-124 -146 0
-114 -146 0
-111 -186 0
-37 -111 0
-37 -186 0
-144 -148 0
-144 -202 0
-148 -202 0
-48 -150 0
-133 -150 0
-48 -133 0
-182 -188 0
-182 -191 0
-188 -191 0
-166 -205 0
-117 -166 0
-117 -205 0
-109 -212 0
-109 -214 0
-212 -214 0
-109 -166 0
-150 -182 0
-48 -188 0
-48 -205 0
-48 -212 0
-188 -205 0
-188 -212 0
-205 -212 0
-133 -191 0
-117 -133 0
-133 -214 0
-117 -191 0
-191 -214 0
-117 -214 0
-35 -158 0
-96 -158 0
-61 -158 0
-155 -158 0
-158 -167 0
-35 -96 0
-35 -61 0
-35 -155 0
-35 -167 0
-61 -96 0
-96 -155 0
-96 -167 0
-61 -155 0
-61 -167 0
-155 -167 0
-33 -128 0
-33 -80 0
-33 -75 0
-32 -33 0
-31 -33 0
-80 -128 0
-75 -128 0
-32 -128 0
-31 -128 0
-75 -80 0
-32 -80 0
-31 -80 0
-32 -75 0
-31 -75 0
-31 -32 0
-88 -99 0
-88 -172 0
-88 -184 0
-88 -189 0
-88 -192 0
-99 -172 0
-99 -184 0
-99 -189 0
-99 -192 0
-172 -184 0
-172 -189 0
-172 -192 0
-184 -189 0
-184 -192 0
-189 -192 0
-91 -195 0
-91 -206 0
-91 -110 0
-69 -91 0
-63 -91 0
-195 -206 0
-110 -195 0
-69 -195 0
-63 -195 0
-110 -206 0
-69 -206 0
-63 -206 0
-69 -110 0
-63 -110 0
-63 -69 0
-57 -60 0
-56 -60 0
-53 -60 0
-52 -60 0
-60 -149 0
-56 -57 0
-53 -57 0
-52 -57 0
-57 -149 0
-53 -56 0
-52 -56 0
-56 -149 0
-52 -53 0
-53 -149 0
-52 -149 0
-30 -49 0
-30 -83 0
-30 -40 0
-30 -39 0
-30 -181 0
-49 -83 0
-40 -49 0
-39 -49 0
-49 -181 0
-40 -83 0
-39 -83 0
-83 -181 0
-39 -40 0
-40 -181 0
-39 -181 0
-33 -158 0
-88 -158 0
-91 -158 0
-60 -158 0
-30 -158 0
-33 -88 0
-33 -91 0
-33 -60 0
-30 -33 0
-88 -91 0
-60 -88 0
-30 -88 0
-60 -91 0
-30 -91 0
-30 -60 0
-35 -128 0
-35 -99 0
-35 -195 0
-35 -57 0
-35 -49 0
-99 -128 0
-128 -195 0
-57 -128 0
-49 -128 0
-99 -195 0
-57 -99 0
-49 -99 0
-57 -195 0
-49 -195 0
-49 -57 0
-80 -96 0
-96 -172 0
-96 -206 0
-56 -96 0
-83 -96 0
-80 -172 0
-80 -206 0
-56 -80 0
-80 -83 0
-172 -206 0
-56 -172 0
-83 -172 0
-56 -206 0
-83 -206 0
-56 -83 0
-61 -75 0
-61 -184 0
-61 -110 0
-53 -61 0
-40 -61 0
-75 -184 0
-75 -110 0
-53 -75 0
-40 -75 0
-110 -184 0
-53 -184 0
-40 -184 0
-53 -110 0
-40 -110 0
-40 -53 0
-32 -155 0
-155 -189 0
-69 -155 0
-52 -155 0
-39 -155 0
-32 -189 0
-32 -69 0
-32 -52 0
-32 -39 0
-69 -189 0
-52 -189 0
-39 -189 0
-52 -69 0
-39 -69 0
-39 -52 0
-31 -167 0
-167 -192 0
-63 -167 0
-149 -167 0
-167 -181 0
-31 -192 0
-31 -63 0
-31 -149 0
-31 -181 0
-63 -192 0
-149 -192 0
-181 -192 0
-63 -149 0
-63 -181 0
-149 -181 0
-29 -132 0
-29 -219 0
-132 -219 0
-136 -156 0
-136 -168 0
-156 -168 0
-34 -159 0
-62 -159 0
-34 -62 0
-86 -98 0
-86 -183 0
-98 -183 0
-29 -136 0
-132 -156 0
-132 -159 0
-86 -132 0
-156 -159 0
-86 -156 0
-86 -159 0
-168 -219 0
-34 -219 0
-98 -219 0
-34 -168 0
-98 -168 0
-34 -98 0
-62 -183 0
-74 -217 0
-28 -74 0
-74 -102 0
-74 -161 0
-28 -217 0
-102 -217 0
-161 -217 0
-28 -102 0
-28 -161 0
-102 -161 0
-27 -152 0
-27 -162 0
-27 -121 0
-27 -46 0
-152 -162 0
-121 -152 0
-46 -152 0
-121 -162 0
-46 -162 0
-46 -121 0
-77 -82 0
-82 -201 0
-82 -187 0
-82 -190 0
-77 -201 0
-77 -187 0
-77 -190 0
-187 -201 0
-190 -201 0
-187 -190 0
-26 -194 0
-131 -194 0
-194 -220 0
-26 -131 0
-26 -220 0
-131 -220 0
-59 -178 0
-25 -59 0
-51 -59 0
-25 -178 0
-51 -178 0
-25 -51 0
-27 -74 0
-74 -82 0
-74 -194 0
-59 -74 0
-27 -82 0
-27 -194 0
-27 -59 0
-82 -194 0
-59 -82 0
-59 -194 0
-152 -217 0
-77 -217 0
-26 -217 0
-178 -217 0
-77 -152 0
-26 -152 0
-152 -178 0
-26 -77 0
-77 -178 0
-26 -178 0
-28 -162 0
-28 -201 0
-162 -201 0
-102 -121 0
-102 -187 0
-102 -131 0
-25 -102 0
-121 -187 0
-121 -131 0
-25 -121 0
-131 -187 0
-25 -187 0
-25 -131 0
-46 -161 0
-161 -190 0
-161 -220 0
-51 -161 0
-46 -190 0
-46 -220 0
-46 -51 0
-190 -220 0
-51 -190 0
-51 -220 0
-24 -126 0
-112 -126 0
-71 -126 0
-23 -126 0
-126 -139 0
-126 -165 0
-24 -112 0
-24 -71 0
-23 -24 0
-24 -139 0
-24 -165 0
-71 -112 0
-23 -112 0
-112 -139 0
-112 -165 0
-23 -71 0
-71 -139 0
-71 -165 0
-23 -139 0
-23 -165 0
-139 -165 0
-22 -129 0
-22 -90 0
-22 -142 0
-22 -204 0
-22 -118 0
-22 -107 0
-90 -129 0
-129 -142 0
-129 -204 0
-118 -129 0
-107 -129 0
-90 -142 0
-90 -204 0
-90 -118 0
-90 -107 0
-142 -204 0
-118 -142 0
-107 -142 0
-118 -204 0
-107 -204 0
-107 -118 0
-73 -97 0
-73 -103 0
-73 -176 0
-73 -211 0
-73 -213 0
-73 -153 0
-97 -103 0
-97 -176 0
-97 -211 0
-97 -213 0
-97 -153 0
-103 -176 0
-103 -211 0
-103 -213 0
-103 -153 0
-176 -211 0
-176 -213 0
-153 -176 0
-211 -213 0
-153 -211 0
-153 -213 0
-185 -199 0
-21 -199 0
-21 -185 0
-81 -216 0
-20 -81 0
-19 -81 0
-81 -218 0
-18 -81 0
-64 -81 0
-20 -216 0
-19 -216 0
-216 -218 0
-18 -216 0
-64 -216 0
-19 -20 0
-20 -218 0
-18 -20 0
-20 -64 0
-19 -218 0
-18 -19 0
-19 -64 0
-18 -218 0
-64 -218 0
-18 -64 0
-101 -160 0
-17 -101 0
-16 -101 0
-101 -151 0
-15 -101 0
-50 -101 0
-17 -160 0
-16 -160 0
-151 -160 0
-15 -160 0
-50 -160 0
-16 -17 0
-17 -151 0
-15 -17 0
-17 -50 0
-16 -151 0
-15 -16 0
-16 -50 0
-15 -151 0
-50 -151 0
-15 -50 0
-47 -120 0
-44 -120 0
-41 -120 0
-76 -120 0
-14 -120 0
-38 -120 0
-44 -47 0
-41 -47 0
-47 -76 0
-14 -47 0
-38 -47 0
-41 -44 0
-44 -76 0
-14 -44 0
-38 -44 0
-41 -76 0
-14 -41 0
-38 -41 0
-14 -76 0
-38 -76 0
-14 -38 0
-22 -126 0
-73 -126 0
-126 -199 0
-81 -126 0
-101 -126 0
-120 -126 0
-22 -73 0
-22 -199 0
-22 -81 0
-22 -101 0
-22 -120 0
-73 -199 0
-73 -81 0
-73 -101 0
-73 -120 0
-81 -199 0
-101 -199 0
-120 -199 0
-81 -101 0
-81 -120 0
-101 -120 0
-24 -129 0
-24 -97 0
-24 -185 0
-24 -216 0
-24 -160 0
-24 -47 0
-97 -129 0
-129 -185 0
-129 -216 0
-129 -160 0
-47 -129 0
-97 -185 0
-97 -216 0
-97 -160 0
-47 -97 0
-185 -216 0
-160 -185 0
-47 -185 0
-160 -216 0
-47 -216 0
-47 -160 0
-90 -112 0
-103 -112 0
-21 -112 0
-20 -112 0
-17 -112 0
-44 -112 0
-90 -103 0
-21 -90 0
-20 -90 0
-17 -90 0
-44 -90 0
-21 -103 0
-20 -103 0
-17 -103 0
-44 -103 0
-20 -21 0
-17 -21 0
-21 -44 0
-17 -20 0
-20 -44 0
-17 -44 0
-71 -142 0
-71 -176 0
-19 -71 0
-16 -71 0
-41 -71 0
-142 -176 0
-19 -142 0
-16 -142 0
-41 -142 0
-19 -176 0
-16 -176 0
-41 -176 0
-16 -19 0
-19 -41 0
-16 -41 0
-23 -204 0
-23 -211 0
-23 -218 0
-23 -151 0
-23 -76 0
-204 -211 0
-204 -218 0
-151 -204 0
-76 -204 0
-211 -218 0
-151 -211 0
-76 -211 0
-151 -218 0
-76 -218 0
-76 -151 0
-118 -139 0
-139 -213 0
-18 -139 0
-15 -139 0
-14 -139 0
-118 -213 0
-18 -118 0
-15 -118 0
-14 -118 0
-18 -213 0
-15 -213 0
-14 -213 0
-15 -18 0
-14 -18 0
-14 -15 0
-107 -165 0
-153 -165 0
-64 -165 0
-50 -165 0
-38 -165 0
-107 -153 0
-64 -107 0
-50 -107 0
-38 -107 0
-64 -153 0
-50 -153 0
-38 -153 0
-50 -64 0
-38 -64 0
-38 -50 0
-54 -95 0
-54 -89 0
-13 -54 0
-12 -54 0
-89 -95 0
-13 -95 0
-12 -95 0
-13 -89 0
-12 -89 0
-12 -13 0
-70 -135 0
-70 -140 0
-70 -92 0
-70 -196 0
-135 -140 0
-92 -135 0
-135 -196 0
-92 -140 0
-140 -196 0
-92 -196 0
-84 -134 0
-134 -209 0
-84 -209 0
-138 -164 0
-11 -138 0
-138 -141 0
-138 -203 0
-11 -164 0
-141 -164 0
-164 -203 0
-11 -141 0
-11 -203 0
-141 -203 0
-108 -116 0
-43 -116 0
-116 -175 0
-116 -210 0
-43 -108 0
-108 -175 0
-108 -210 0
-43 -175 0
-43 -210 0
-175 -210 0
-54 -70 0
-54 -134 0
-54 -138 0
-54 -116 0
-70 -134 0
-70 -138 0
-70 -116 0
-134 -138 0
-116 -134 0
-116 -138 0
-95 -135 0
-84 -95 0
-95 -164 0
-95 -108 0
-84 -135 0
-135 -164 0
-108 -135 0
-84 -164 0
-84 -108 0
-108 -164 0
-89 -140 0
-89 -209 0
-11 -89 0
-43 -89 0
-140 -209 0
-11 -140 0
-43 -140 0
-11 -209 0
-43 -209 0
-11 -43 0
-13 -92 0
-13 -141 0
-13 -175 0
-92 -141 0
-92 -175 0
-141 -175 0
-12 -196 0
-12 -203 0
-12 -210 0
-196 -203 0
-196 -210 0
-203 -210 0
-10 -106 0
-10 -125 0
-10 -68 0
-106 -125 0
-68 -106 0
-68 -125 0
-66 -169 0
-66 -173 0
-66 -177 0
-169 -173 0
-169 -177 0
-173 -177 0
-87 -100 0
-55 -94 0
-10 -66 0
-10 -87 0
-66 -87 0
-106 -169 0
-100 -106 0
-100 -169 0
-125 -173 0
-55 -125 0
-55 -173 0
-68 -177 0
-68 -94 0
-94 -177 0
-113 -157 0
-105 -157 0
-115 -157 0
-154 -157 0
-157 -163 0
-123 -157 0
-105 -113 0
-113 -115 0
-113 -154 0
-113 -163 0
-113 -123 0
-105 -115 0
-105 -154 0
-105 -163 0
-105 -123 0
-115 -154 0
-115 -163 0
-115 -123 0
-154 -163 0
-123 -154 0
-123 -163 0
-8 -147 0
-8 -85 0
-8 -79 0
-8 -78 0
-7 -8 0
-6 -8 0
-85 -147 0
-79 -147 0
-78 -147 0
-7 -147 0
-6 -147 0
-79 -85 0
-78 -85 0
-7 -85 0
-6 -85 0
-78 -79 0
-7 -79 0
-6 -79 0
-7 -78 0
-6 -78 0
-6 -7 0
-67 -145 0
-67 -170 0
-67 -174 0
-67 -180 0
-67 -193 0
-67 -198 0
-145 -170 0
-145 -174 0
-145 -180 0
-145 -193 0
-145 -198 0
-170 -174 0
-170 -180 0
-170 -193 0
-170 -198 0
-174 -180 0
-174 -193 0
-174 -198 0
-180 -193 0
-180 -198 0
-193 -198 0
-179 -200 0
-5 -179 0
-179 -207 0
-4 -179 0
-5 -200 0
-200 -207 0
-4 -200 0
-5 -207 0
-4 -5 0
-4 -207 0
-72 -208 0
-137 -208 0
-130 -208 0
-93 -208 0
-72 -137 0
-72 -130 0
-72 -93 0
-130 -137 0
-93 -137 0
-93 -130 0
-143 -197 0
-3 -197 0
-119 -197 0
-9 -197 0
-3 -143 0
-119 -143 0
-9 -143 0
-3 -119 0
-3 -9 0
-9 -119 0
-2 -45 0
-2 -42 0
-1 -2 0
-2 -65 0
-42 -45 0
-1 -45 0
-45 -65 0
-1 -42 0
-42 -65 0
-1 -65 0
-8 -157 0
-67 -157 0
-157 -179 0
-157 -208 0
-157 -197 0
-2 -157 0
-8 -67 0
-8 -179 0
-8 -208 0
-8 -197 0
-2 -8 0
-67 -179 0
-67 -208 0
-67 -197 0
-2 -67 0
-179 -208 0
-179 -197 0
-2 -179 0
-197 -208 0
-2 -208 0
-2 -197 0
-113 -147 0
-113 -145 0
-113 -200 0
-72 -113 0
-113 -143 0
-45 -113 0
-145 -147 0
-147 -200 0
-72 -147 0
-143 -147 0
-45 -147 0
-145 -200 0
-72 -145 0
-143 -145 0
-45 -145 0
-72 -200 0
-143 -200 0
-45 -200 0
-72 -143 0
-45 -72 0
-45 -143 0
-85 -105 0
-105 -170 0
-5 -105 0
-105 -137 0
-3 -105 0
-42 -105 0
-85 -170 0
-5 -85 0
-85 -137 0
-3 -85 0
-42 -85 0
-5 -170 0
-137 -170 0
-3 -170 0
-42 -170 0
-5 -137 0
-3 -5 0
-5 -42 0
-3 -137 0
-42 -137 0
-3 -42 0
-79 -115 0
-115 -174 0
-115 -119 0
-1 -115 0
-79 -174 0
-79 -119 0
-1 -79 0
-119 -174 0
-1 -174 0
-1 -119 0
-78 -154 0
-154 -180 0
-9 -154 0
-65 -154 0
-78 -180 0
-9 -78 0
-65 -78 0
-9 -180 0
-65 -180 0
-9 -65 0
-7 -163 0
-163 -193 0
-163 -207 0
-130 -163 0
-7 -193 0
-7 -207 0
-7 -130 0
-193 -207 0
-130 -193 0
-130 -207 0
-6 -123 0
-123 -198 0
-4 -123 0
-93 -123 0
-6 -198 0
-4 -6 0
-6 -93 0
-4 -198 0
-93 -198 0
-4 -93 0
-35 -158 0
-33 -158 0
-128 -158 0
-88 -158 0
-99 -158 0
-33 -35 0
-35 -128 0
-35 -88 0
-35 -99 0
-33 -128 0
-33 -88 0
-33 -99 0
-88 -128 0
-99 -128 0
-88 -99 0
-29 -136 0
-74 -217 0
-27 -74 0
-74 -152 0
-74 -82 0
-74 -77 0
-27 -217 0
-152 -217 0
-82 -217 0
-77 -217 0
-27 -152 0
-27 -82 0
-27 -77 0
-82 -152 0
-77 -152 0
-77 -82 0
-24 -126 0
-112 -126 0
-22 -126 0
-126 -129 0
-90 -126 0
-73 -126 0
-97 -126 0
-103 -126 0
-24 -112 0
-22 -24 0
-24 -129 0
-24 -90 0
-24 -73 0
-24 -97 0
-24 -103 0
-22 -112 0
-112 -129 0
-90 -112 0
-73 -112 0
-97 -112 0
-103 -112 0
-22 -129 0
-22 -90 0
-22 -73 0
-22 -97 0
-22 -103 0
-90 -129 0
-73 -129 0
-97 -129 0
-103 -129 0
-73 -90 0
-90 -97 0
-90 -103 0
-73 -97 0
-73 -103 0
-97 -103 0
-54 -95 0
-54 -89 0
-54 -70 0
-54 -135 0
-54 -140 0
-89 -95 0
-70 -95 0
-95 -135 0
-95 -140 0
-70 -89 0
-89 -135 0
-89 -140 0
-70 -135 0
-70 -140 0
-135 -140 0
-10 -106 0
-10 -66 0
-10 -169 0
-66 -106 0
-106 -169 0
-66 -169 0
-113 -157 0
-105 -157 0
-8 -157 0
-147 -157 0
-85 -157 0
-67 -157 0
-145 -157 0
-157 -170 0
-105 -113 0
-8 -113 0
-113 -147 0
-85 -113 0
-67 -113 0
-113 -145 0
-113 -170 0
-8 -105 0
-105 -147 0
-85 -105 0
-67 -105 0
-105 -145 0
-105 -170 0
-8 -147 0
-8 -85 0
-8 -67 0
-8 -145 0
-8 -170 0
-85 -147 0
-67 -147 0
-145 -147 0
-147 -170 0
-67 -85 0
-85 -145 0
-85 -170 0
-67 -145 0
-67 -170 0
-145 -170 0
-36 -104 0
-104 -171 0
-104 -124 0
-36 -171 0
-36 -124 0
-124 -171 0
-150 -182 0
-61 -96 0
-80 -96 0
-75 -96 0
-96 -172 0
-96 -184 0
-61 -80 0
-61 -75 0
-61 -172 0
-61 -184 0
-75 -80 0
-80 -172 0
-80 -184 0
-75 -172 0
-75 -184 0
-172 -184 0
-132 -219 0
-132 -156 0
-132 -168 0
-156 -219 0
-168 -219 0
-156 -168 0
-28 -162 0
-28 -201 0
-162 -201 0
-23 -71 0
-71 -142 0
-71 -204 0
-71 -176 0
-71 -211 0
-23 -142 0
-23 -204 0
-23 -176 0
-23 -211 0
-142 -204 0
-142 -176 0
-142 -211 0
-176 -204 0
-204 -211 0
-176 -211 0
-68 -125 0
-125 -173 0
-125 -177 0
-68 -173 0
-68 -177 0
-173 -177 0
-115 -154 0
-79 -115 0
-78 -115 0
-115 -174 0
-115 -180 0
-79 -154 0
-78 -154 0
-154 -174 0
-154 -180 0
-78 -79 0
-79 -174 0
-79 -180 0
-78 -174 0
-78 -180 0
-174 -180 0
-111 -144 0
-111 -186 0
-111 -148 0
-144 -186 0
-144 -148 0
-148 -186 0
-48 -133 0
-48 -188 0
-48 -191 0
-133 -188 0
-133 -191 0
-188 -191 0
-155 -167 0
-32 -155 0
-31 -155 0
-155 -189 0
-155 -192 0
-32 -167 0
-31 -167 0
-167 -189 0
-167 -192 0
-31 -32 0
-32 -189 0
-32 -192 0
-31 -189 0
-31 -192 0
-189 -192 0
-102 -161 0
-102 -121 0
-46 -102 0
-102 -187 0
-102 -190 0
-121 -161 0
-46 -161 0
-161 -187 0
-161 -190 0
-46 -121 0
-121 -187 0
-121 -190 0
-46 -187 0
-46 -190 0
-187 -190 0
-139 -165 0
-118 -139 0
-107 -139 0
-139 -213 0
-139 -153 0
-118 -165 0
-107 -165 0
-165 -213 0
-153 -165 0
-107 -118 0
-118 -213 0
-118 -153 0
-107 -213 0
-107 -153 0
-153 -213 0
-12 -13 0
-13 -92 0
-13 -196 0
-12 -92 0
-12 -196 0
-92 -196 0
-123 -163 0
-7 -163 0
-6 -163 0
-163 -193 0
-163 -198 0
-7 -123 0
-6 -123 0
-123 -193 0
-123 -198 0
-6 -7 0
-7 -193 0
-7 -198 0
-6 -193 0
-6 -198 0
-193 -198 0
-109 -166 0
-185 -199 0
-21 -199 0
-21 -185 0
-84 -134 0
-134 -209 0
-84 -209 0
-87 -100 0
-179 -200 0
-5 -179 0
-179 -208 0
-72 -179 0
-137 -179 0
-5 -200 0
-200 -208 0
-72 -200 0
-137 -200 0
-5 -208 0
-5 -72 0
-5 -137 0
-72 -208 0
-137 -208 0
-72 -137 0
-37 -202 0
-117 -205 0
-205 -212 0
-205 -214 0
-117 -212 0
-117 -214 0
-212 -214 0
-4 -207 0
-130 -207 0
-93 -207 0
-4 -130 0
-4 -93 0
-93 -130 0
-58 -215 0
-91 -195 0
-60 -91 0
-57 -91 0
-30 -91 0
-49 -91 0
-60 -195 0
-57 -195 0
-30 -195 0
-49 -195 0
-57 -60 0
-30 -60 0
-49 -60 0
-30 -57 0
-49 -57 0
-30 -49 0
-26 -194 0
-59 -194 0
-178 -194 0
-26 -59 0
-26 -178 0
-59 -178 0
-81 -216 0
-20 -81 0
-81 -101 0
-81 -160 0
-17 -81 0
-81 -120 0
-47 -81 0
-44 -81 0
-20 -216 0
-101 -216 0
-160 -216 0
-17 -216 0
-120 -216 0
-47 -216 0
-44 -216 0
-20 -101 0
-20 -160 0
-17 -20 0
-20 -120 0
-20 -47 0
-20 -44 0
-101 -160 0
-17 -101 0
-101 -120 0
-47 -101 0
-44 -101 0
-17 -160 0
-120 -160 0
-47 -160 0
-44 -160 0
-17 -120 0
-17 -47 0
-17 -44 0
-47 -120 0
-44 -120 0
-44 -47 0
-138 -164 0
-11 -138 0
-116 -138 0
-108 -138 0
-43 -138 0
-11 -164 0
-116 -164 0
-108 -164 0
-43 -164 0
-11 -116 0
-11 -108 0
-11 -43 0
-108 -116 0
-43 -116 0
-43 -108 0
-143 -197 0
-3 -197 0
-2 -197 0
-45 -197 0
-42 -197 0
-3 -143 0
-2 -143 0
-45 -143 0
-42 -143 0
-2 -3 0
-3 -45 0
-3 -42 0
-2 -45 0
-2 -42 0
-42 -45 0
-114 -127 0
-122 -127 0
-127 -146 0
-114 -122 0
-114 -146 0
-122 -146 0
-110 -206 0
-56 -206 0
-53 -206 0
-83 -206 0
-40 -206 0
-56 -110 0
-53 -110 0
-83 -110 0
-40 -110 0
-53 -56 0
-56 -83 0
-40 -56 0
-53 -83 0
-40 -53 0
-40 -83 0
-34 -159 0
-86 -159 0
-98 -159 0
-34 -86 0
-34 -98 0
-86 -98 0
-19 -218 0
-16 -19 0
-19 -151 0
-19 -41 0
-19 -76 0
-16 -218 0
-151 -218 0
-41 -218 0
-76 -218 0
-16 -151 0
-16 -41 0
-16 -76 0
-41 -151 0
-76 -151 0
-41 -76 0
-55 -94 0
-9 -119 0
-1 -119 0
-65 -119 0
-1 -9 0
-9 -65 0
-1 -65 0
-63 -69 0
-52 -69 0
-69 -149 0
-39 -69 0
-69 -181 0
-52 -63 0
-63 -149 0
-39 -63 0
-63 -181 0
-52 -149 0
-39 -52 0
-52 -181 0
-39 -149 0
-149 -181 0
-39 -181 0
-62 -183 0
-131 -220 0
-25 -131 0
-51 -131 0
-25 -220 0
-51 -220 0
-25 -51 0
-18 -64 0
-15 -18 0
-18 -50 0
-14 -18 0
-18 -38 0
-15 -64 0
-50 -64 0
-14 -64 0
-38 -64 0
-15 -50 0
-14 -15 0
-15 -38 0
-14 -50 0
-38 -50 0
-14 -38 0
-141 -203 0
-141 -175 0
-141 -210 0
-175 -203 0
-203 -210 0
-175 -210 0
